c NeuroCodeBench 2.0 CNF formula with verdict Sat
p cnf 13 13
5 2 7 10 -11 -3 -6 -1 0
12 1 3 4 7 -8 -9 -13 -6 -2 0
6 5 10 11 4 1 -12 -8 -2 -3 -13 -7 0
4 1 7 2 -9 -11 0
2 9 6 7 -1 0
5 6 8 9 -4 -13 -3 -2 -11 -10 0
11 1 13 2 5 4 -8 -6 -12 -9 0
2 10 7 3 8 13 -1 -6 -4 -9 -11 0
12 -11 -9 -3 -10 0
3 1 12 8 5 9 -11 -7 -10 0
7 1 9 3 -12 -4 -10 -11 -2 -13 -6 0
13 3 11 7 1 10 -2 0
4 -9 0
